Minimize
  5 x_peach_flavored_candy + 4 x_cherry_flavored_candy
Subject To
  c1: 3 x_peach_flavored_candy <= 3000
  c2: 5 x_cherry_flavored_candy <= 4000
  c3: x_peach_flavored_candy - x_cherry_flavored_candy >= 0
  c4: 0.7 x_cherry_flavored_candy - 0.3 x_peach_flavored_candy >= 0
End